File : Instances/p67
Used 68s
28427

0 0 0 0 1 0 0 0 0 0 1 0 0 1 1 0 0 1 1 0 0 0 0 1 1 1 0 1 1 0 
18 14 24 27 23 25 10 27 27 28 4 28 13 13 28 18 13 10 27 27 18 24 23 24 10 18 27 17 4 23 4 4 4 27 27 4 10 13 24 24 18 14 28 4 13 14 13 24 14 14 24 24 24 24 10 25 18 14 18 25 4 17 18 13 13 25 23 14 28 25 18 25 14 14 23 23 10 10 10 24 10 17 14 25 4 13 4 23 27 18 28 4 25 25 17 13 27 28 17 28 28 23 25 18 4 27 4 24 27 13 14 4 27 25 28 13 28 25 17 13 14 25 17 14 4 27 23 28 4 17 28 24 25 10 23 14 13 13 28 10 28 18 28 25 25 23 27 24 27 25 27 17 23 17 13 28 23 24 13 13 13 27 10 17 23 27 23 4 13 24 23 13 14 14 4 17 17 10 4 10 23 24 24 28 25 13 28 23 17 24 17 24 28 4 18 25 25 24 10 28 
